results/x-long/X-n115-k10.vrp_seed-32.out
12747	1018
