results/x-long/X-n115-k10.vrp_seed-32.vrp.sol
Route #1: 10
Route #2: 16 5 6
Route #3: 72 102 24 71 76 55 80 97 38 77 58 113 12 45 96 22 23 65 36
Route #4: 64 63 7 1 74 85
Route #5: 15 32 3 93 18 109 47 79 49 99 35 42 59
Route #6: 89 17 66 106 73 87 86 60 48 108 19 51 25 2 91 41 104
Route #7: 46 26 34 98 37 90 39 67 40 43 68 14 8 83 75 84 112 110 111
Route #8: 52 21 82 88 105 27 44 30 114 54 9 78 53 29 50
Route #9: 13 70 56 31 11 81 33 61 103 69
Route #10: 28 100 62 94 20 101 4 92 57 107 95
Cost 12747.000000